p cnf 0 0
c 1 color par vertex et au plus 1
3 4 5 0
-4 -3 0
-5 -3 0
-5 -4 0
6 7 8 0
-7 -6 0
-8 -6 0
-8 -7 0
9 10 11 0
-10 -9 0
-11 -9 0
-11 -10 0
c gc coresp to G
-3 -7 12 0
-3 -7 -13 1 0
-3 -7 13 -1 0
-3 -8 14 0
-3 -8 -15 1 0
-3 -8 15 -1 0
-4 -6 12 0
-4 -6 -13 1 0
-4 -6 13 -1 0
-4 -8 16 0
-4 -8 -17 1 0
-4 -8 17 -1 0
-5 -6 14 0
-5 -6 -15 1 0
-5 -6 15 -1 0
-5 -7 16 0
-5 -7 -17 1 0
-5 -7 17 -1 0
-6 -10 12 0
-6 -10 -13 2 0
-6 -10 13 -2 0
-6 -11 14 0
-6 -11 -15 2 0
-6 -11 15 -2 0
-7 -9 12 0
-7 -9 -13 2 0
-7 -9 13 -2 0
-7 -11 16 0
-7 -11 -17 2 0
-7 -11 17 -2 0
-8 -9 14 0
-8 -9 -15 2 0
-8 -9 15 -2 0
-8 -10 16 0
-8 -10 -17 2 0
-8 -10 17 -2 0
c X
-19 3 0
-18 3 0
-19 7 0
-18 7 0
-19 1 0
-18 -1 0
19 -3 -7 -1 0
18 -3 -7 1 0
-21 3 0
-20 3 0
-21 8 0
-20 8 0
-21 1 0
-20 -1 0
21 -3 -8 -1 0
20 -3 -8 1 0
-23 4 0
-22 4 0
-23 6 0
-22 6 0
-23 1 0
-22 -1 0
23 -4 -6 -1 0
22 -4 -6 1 0
-25 4 0
-24 4 0
-25 8 0
-24 8 0
-25 1 0
-24 -1 0
25 -4 -8 -1 0
24 -4 -8 1 0
-27 5 0
-26 5 0
-27 6 0
-26 6 0
-27 1 0
-26 -1 0
27 -5 -6 -1 0
26 -5 -6 1 0
-29 5 0
-28 5 0
-29 7 0
-28 7 0
-29 1 0
-28 -1 0
29 -5 -7 -1 0
28 -5 -7 1 0
-31 6 0
-30 6 0
-31 10 0
-30 10 0
-31 2 0
-30 -2 0
31 -6 -10 -2 0
30 -6 -10 2 0
-33 6 0
-32 6 0
-33 11 0
-32 11 0
-33 2 0
-32 -2 0
33 -6 -11 -2 0
32 -6 -11 2 0
-35 7 0
-34 7 0
-35 9 0
-34 9 0
-35 2 0
-34 -2 0
35 -7 -9 -2 0
34 -7 -9 2 0
-37 7 0
-36 7 0
-37 11 0
-36 11 0
-37 2 0
-36 -2 0
37 -7 -11 -2 0
36 -7 -11 2 0
-39 8 0
-38 8 0
-39 9 0
-38 9 0
-39 2 0
-38 -2 0
39 -8 -9 -2 0
38 -8 -9 2 0
-41 8 0
-40 8 0
-41 10 0
-40 10 0
-41 2 0
-40 -2 0
41 -8 -10 -2 0
40 -8 -10 2 0
c x suite
-12 -13 19 23 31 35 0
-14 -15 21 27 33 39 0
-16 -17 25 29 37 41 0
-12 13 18 22 30 34 0
-14 15 20 26 32 38 0
-16 17 24 28 36 40 0
c proper colo
-3 -6 0
-4 -7 0
-5 -8 0
-6 -9 0
-7 -10 0
-8 -11 0
12 42 0
14 43 0
16 44 0
-42 14 0
-42 16 0
-42 15 17 0
-42 -15 -17 0
42 -14 -16 15 -17 0
42 -14 -16 -15 17 0
-43 12 0
-43 16 0
-43 13 17 0
-43 -13 -17 0
43 -12 -16 13 -17 0
43 -12 -16 -13 17 0
-44 12 0
-44 14 0
-44 13 15 0
-44 -13 -15 0
44 -12 -14 13 -15 0
44 -12 -14 -13 15 0
c K couleurs
3 6 9 0
4 7 10 0
5 8 11 0
1 0
-4 0
-5 0
-8 0
